################################################################################
# PREAMBLE
################################################################################
outdata_prefix "./outdata/scf"                                                 # path prefix for output data files
ndtset 12  udtset 3 4

################################################################################
# UNIT CELL
################################################################################
acell 6.234  6.234  6.234  
rprim -0.5  0.5  0.5                                                            # bcc primitive vectors
       0.5 -0.5  0.5
       0.5  0.5 -0.5

################################################################################
# ATOM TYPES
################################################################################
ntypat 1                                                                        # number of atom types
znucl 41                                                                        # atomic number of the atom types (space-separated)
pp_dirpath "../"                                                                # path to directory containing pseudopotentials (must be consistent with 'znucl' order)
pseudos "Nb.psp8"                                                               # pseudopotential file names (within quotation marks, comma-separated)

################################################################################
# ATOMS
################################################################################
natom 1                                                                         # Al has FCC structure, with one atom per unit cell
typat 1                                                                         # atom types (must be consistent with 'znucl' and 'pseudos' order)
xred 0.0 0.0 0.0                                                                # atom fractional coordinates within unit cell

################################################################################
# PLANE-WAVE BASIS SET
################################################################################
ecut 33

################################################################################
# k-POINT GRID (see https://journals.aps.org/prb/abstract/10.1103/PhysRevB.13.5188) for SCF procedure (dataset 1)
################################################################################
kptopt 1                                                                       # method to set-up k-points; 1: symmetry accounted for, so that only k-points within irreducible BZ generated, with appropriate symmetry-defined weights (degeneracy); prevents redundancy
ngkpt1?  4 4 4
ngkpt2?  6 6 6
ngkpt3?  8 8 8

nshiftk 2                                                                       # number of shifted grids to be used concurrently with the one defined above
shiftk 0.25  0.25  0.25
      -0.25 -0.25 -0.25

################################################################################
# OCCUPATION
################################################################################
occopt 4                                                                        # controls how occupation of electronic states is handled (see https://docs.abinit.org/variables/basic/#occopt)
                                                                                # when occopt = 4, the "cold smearing" of Marzari is used
                                                                                # smearing improves convergence w.r.t. to BZ sampling in metals, where state occupation drops suddenly to zero as Fermi level crossed
                                                                                # otherwise, a very fine mesh would be needed for accurate integration around the discontinuity
tsmear?1  0.01
tsmear?2  0.02
tsmear?3  0.03
tsmear?4  0.04
                                                                                

################################################################################
# SCF PROCEDURE
################################################################################
nstep 10                                                                       # max. number of SCF cycles
toldfe 1.0d-6                                                                  # convergence criterion: absolute energy difference between two consecutive steps
prtden  1                                                                      # save density from SCF procedure (dataset1), so that it can be used in the non-self-consistent calculation of band structure (dataset 2)